1180.12 0
0 63 66 55 54 57 59 40 41 43 0
0 24 25 30 15 16 14 8 7 0
0 65 74 61 53 56 58 60 48 47 0
0 21 26 28 27 29 36 33 32 52 50 51 45 44 0
0 84 83 82 78 76 71 70 73 77 79 80 72 64 68 0
0 49 46 42 69 90 88 95 97 100 0
0 31 35 37 38 39 34 18 19 12 13 0
0 67 62 81 86 87 91 75 4 9 17 23 22 20 0
0 98 96 94 92 93 99 1 3 5 0
0 10 11 6 2 85 89 0